52948
7, 37, 5, 35, 24, 20, 50, 38, 8, 44, 32, 41, 19, 48, 17, 53, 34, 54, 47, 30, 4, 18, 12, 9, 14, 2, 42, 33, 1, 27, 31, 25, 11, 45, 52, 15, 36, 46, 39, 16, 10, 22, 29, 21, 23, 49, 26, 55, 28, 6, 3, 43, 13, 51, 40
